p edge 35 143
v 1 576
v 2 860
v 3 656
v 4 956
v 5 768
v 6 40
v 7 434
v 8 95
v 9 73
v 10 480
v 11 767
v 12 120
v 13 455
v 14 56
v 15 612
v 16 345
v 17 5
v 18 423
v 19 58
v 20 51
v 21 78
v 22 258
v 23 78
v 24 647
v 25 324
v 26 545
v 27 120
v 28 546
v 29 516
v 30 58
v 31 323
v 32 80
v 33 60
v 34 700
v 35 96
e 1 2
e 1 3
e 1 4
e 1 5
e 1 10
e 1 15
e 1 20
e 1 30
e 2 3
e 2 4
e 2 12
e 2 18
e 2 22
e 2 27
e 2 33
e 3 4
e 3 8
e 3 19
e 3 23
e 3 34
e 4 13
e 4 28
e 4 35
e 5 6
e 5 7
e 5 8
e 5 9
e 5 10
e 5 15
e 5 20
e 5 30
e 6 7
e 6 8
e 6 9
e 6 11
e 6 16
e 6 25
e 6 31
e 7 8
e 7 9
e 7 17
e 7 21
e 7 26
e 7 32
e 8 9
e 8 19
e 8 23
e 8 34
e 9 14
e 9 24
e 9 29
e 10 11
e 10 12
e 10 13
e 10 14
e 10 15
e 10 20
e 10 30
e 11 12
e 11 13
e 11 14
e 11 16
e 11 25
e 11 31
e 12 13
e 12 14
e 12 18
e 12 22
e 12 27
e 12 33
e 13 14
e 13 28
e 13 35
e 14 24
e 14 29
e 15 16
e 15 17
e 15 18
e 15 19
e 15 20
e 15 30
e 16 17
e 16 18
e 16 19
e 16 25
e 16 31
e 17 18
e 17 19
e 17 21
e 17 26
e 17 32
e 18 19
e 18 22
e 18 27
e 18 33
e 19 23
e 19 34
e 20 21
e 20 22
e 20 23
e 20 24
e 20 30
e 21 22
e 21 23
e 21 24
e 21 26
e 21 32
e 22 23
e 22 24
e 22 27
e 22 33
e 23 24
e 23 34
e 24 29
e 25 26
e 25 27
e 25 28
e 25 29
e 25 31
e 26 27
e 26 28
e 26 29
e 26 32
e 27 28
e 27 29
e 27 33
e 28 29
e 28 35
e 30 31
e 30 32
e 30 33
e 30 34
e 30 35
e 31 32
e 31 33
e 31 34
e 31 35
e 32 33
e 32 34
e 32 35
e 33 34
e 33 35
e 34 35
